(declare-fun temp713_2 () (_ BitVec 64))
(declare-fun temp713_1 () (_ BitVec 64))
(declare-fun temp713_4 () (_ BitVec 64))
(declare-fun temp713_3 () (_ BitVec 64))
(declare-fun temp713_6 () (_ BitVec 64))
(declare-fun temp713_5 () (_ BitVec 64))
(declare-fun temp713_8 () (_ BitVec 64))
(declare-fun temp713_7 () (_ BitVec 64))
(declare-fun temp713_10 () (_ BitVec 64))
(declare-fun temp713_9 () (_ BitVec 64))
(declare-fun temp713_11 () (_ BitVec 64))
(declare-fun var2363642 () (_ BitVec 64))
(declare-fun var2363650 () (_ BitVec 64))
(declare-fun temp713_12 () (_ BitVec 64))
(declare-fun var3679322 () (_ BitVec 64))
(declare-fun temp713_13 () (_ BitVec 64))
(assert (= temp713_2 #x0000000000000000))
(assert (= temp713_1 temp713_2))
(assert (= temp713_4 #x0000000000000000))
(assert (= temp713_3 temp713_4))
(assert (= temp713_6 #x0000000000000000))
(assert (= temp713_5 temp713_6))
(assert (= temp713_8 #x000000000000002b))
(assert (= temp713_7 temp713_8))
(assert (= temp713_10 #x0000000000000001))
(assert (= temp713_9 temp713_10))
(assert (= temp713_11 #x0000000000000001))
(assert (= var2363642 temp713_11))
(assert (= var2363650 var2363642))
(assert (= temp713_12 #x0000000000000000))
(assert (= var3679322 temp713_12))
(assert (= temp713_13 #x0000000000000000))
(assert (or false (= var3679322 temp713_13)))
(model-add temp713_2 () (_ BitVec 64) #x0000000000000000)
(model-add temp713_1 () (_ BitVec 64) #x0000000000000000)
(model-add temp713_4 () (_ BitVec 64) #x0000000000000000)
(model-add temp713_3 () (_ BitVec 64) #x0000000000000000)
(model-add temp713_6 () (_ BitVec 64) #x0000000000000000)
(model-add temp713_5 () (_ BitVec 64) #x0000000000000000)
(model-add temp713_8 () (_ BitVec 64) #x000000000000002b)
(model-add temp713_7 () (_ BitVec 64) #x000000000000002b)
(model-add temp713_10 () (_ BitVec 64) #x0000000000000001)
(model-add temp713_9 () (_ BitVec 64) #x0000000000000001)
(model-add temp713_11 () (_ BitVec 64) #x0000000000000001)
(model-add var2363642 () (_ BitVec 64) #x0000000000000001)
(model-add var2363650 () (_ BitVec 64) #x0000000000000001)
(model-add temp713_12 () (_ BitVec 64) #x0000000000000000)
(model-add var3679322 () (_ BitVec 64) #x0000000000000000)
(model-add temp713_13 () (_ BitVec 64) #x0000000000000000)






